Version identifier: 22.1.1.0 | 2022-11-28 | 9160aff4d
CPXPARAM_ClockType                               1
CPXPARAM_Read_DataCheck                          1
CPXPARAM_Threads                                 1
CPXPARAM_Simplex_Tolerances_Optimality           1.0000000000000001e-09
CPXPARAM_TimeLimit                               7200
CPXPARAM_MIP_Tolerances_AbsMIPGap                0
CPXPARAM_MIP_Tolerances_MIPGap                   0
CPXPARAM_MIP_Tolerances_Integrality              0
Tried aggregator 1 time.
MIQP Presolve eliminated 7462 rows and 4 columns.
MIQP Presolve modified 2808 coefficients.
Reduced MIQP has 14534 rows, 4996 columns, and 46436 nonzeros.
Reduced MIQP has 4496 binaries, 500 generals, 0 SOSs, and 0 indicators.
Reduced MIQP objective Q matrix has 500 nonzeros.
Presolve time = 0.07 sec. (39.20 ticks)
Probing time = 0.01 sec. (3.26 ticks)
Tried aggregator 1 time.
MIQP Presolve eliminated 500 rows and 0 columns.
Reduced MIQP has 14034 rows, 4996 columns, and 43936 nonzeros.
Reduced MIQP has 4496 binaries, 500 generals, 0 SOSs, and 0 indicators.
Reduced MIQP objective Q matrix has 500 nonzeros.
Presolve time = 0.05 sec. (30.47 ticks)
Classifier predicts products in MIQP should be linearized.
Probing time = 0.01 sec. (3.19 ticks)
Clique table members: 8082.
MIP emphasis: balance optimality and feasibility.
MIP search method: dynamic search.
Parallel mode: none, using 1 thread.
Root relaxation solution time = 12.43 sec. (23838.68 ticks)

        Nodes                                         Cuts/
   Node  Left     Objective  IInf  Best Integer    Best Bound    ItCnt     Gap

      0     0     2000.0000  2128                   2000.0000        6         
      0     0     2000.0000  2421                   Cuts: 652   182182         
      0     0     2000.0000  3845                  Cuts: 1609   237051         
      0     0     2000.0000  2911                  Cuts: 1614   297721         
*     0+    0                         1846.0000     2000.0000             8.34%
*     0+    0                         1856.0000     2000.0000             7.76%
*     0+    0                         1858.0000     2000.0000             7.64%
      0     0        cutoff           1858.0000     2000.0000   297721    7.64%
      0     2     2000.0000  2614     1858.0000     2000.0000   297721    7.64%
Elapsed time = 769.41 sec. (317152.25 ticks, tree = 0.01 MB, solutions = 3)
      1     3     2000.0000  2677     1858.0000     2000.0000   299289    7.64%
      4     6     2000.0000  2779     1858.0000     2000.0000   300965    7.64%
      6     8     2000.0000  2539     1858.0000     2000.0000   302969    7.64%
      7     9     2000.0000  2656     1858.0000     2000.0000   304117    7.64%
      9    11     2000.0000  2711     1858.0000     2000.0000   305116    7.64%
     12    14     2000.0000  2609     1858.0000     2000.0000   307378    7.64%
     13    15     2000.0000  2652     1858.0000     2000.0000   311165    7.64%
     14    16     2000.0000  2593     1858.0000     2000.0000   314023    7.64%
     15    17     2000.0000  2601     1858.0000     2000.0000   318066    7.64%
     19    21     2000.0000  2652     1858.0000     2000.0000   320590    7.64%
Elapsed time = 785.82 sec. (325202.51 ticks, tree = 0.07 MB, solutions = 3)
     20    22     1998.7500  2922     1858.0000     2000.0000   324835    7.64%
     21    23     1999.1200  2593     1858.0000     2000.0000   330564    7.64%
     25    27     1996.1820  2694     1858.0000     2000.0000   333772    7.64%
     30    32     1996.5000  2556     1858.0000     2000.0000   335479    7.64%
     35    37     1996.5000  2621     1858.0000     2000.0000   340446    7.64%
     44    46     1996.5000  2682     1858.0000     2000.0000   343494    7.64%
     50    52     1996.0000  2775     1858.0000     2000.0000   346176    7.64%
     58    60     1996.0000  2676     1858.0000     2000.0000   349517    7.64%
     63    65     1996.0000  2699     1858.0000     2000.0000   351887    7.64%
     70    72     1996.0000  2784     1858.0000     2000.0000   353954    7.64%
Elapsed time = 912.52 sec. (373664.61 ticks, tree = 0.26 MB, solutions = 3)
     73    75     1996.0000  2682     1858.0000     2000.0000   358447    7.64%
     77    79     1996.0000  2674     1858.0000     2000.0000   361583    7.64%
     79    81     1996.0000  2420     1858.0000     2000.0000   378670    7.64%
     82    84     1996.0000  2603     1858.0000     2000.0000   382486    7.64%
     87    89     1996.0000  2544     1858.0000     2000.0000   402333    7.64%
     90    92     1996.0000  2382     1858.0000     2000.0000   407969    7.64%
     92    94     1996.0000  2237     1858.0000     2000.0000   426987    7.64%
     94    96     1996.0000  2503     1858.0000     2000.0000   438214    7.64%
     95    97     1996.0000  2487     1858.0000     2000.0000   464068    7.64%
     97    99     1996.0000  2387     1858.0000     2000.0000   510951    7.64%
Elapsed time = 1038.06 sec. (427500.46 ticks, tree = 0.36 MB, solutions = 3)
     98   100     1996.0000  2151     1858.0000     2000.0000   518725    7.64%
     99   101     1996.0000  2650     1858.0000     2000.0000   592978    7.64%
    100   102     1995.5178  2473     1858.0000     2000.0000   631008    7.64%
    101   103     1996.0000  2539     1858.0000     2000.0000   730953    7.64%
    102   104     1993.7356  2615     1858.0000     2000.0000   791304    7.64%
    103   105     1996.0000  2540     1858.0000     2000.0000   909126    7.64%
    104   106     1996.0000  2448     1858.0000     2000.0000  1187879    7.64%
    105   107     1996.0000  2379     1858.0000     2000.0000  1274694    7.64%
    106   108     1995.1040  2722     1858.0000     2000.0000  1281920    7.64%
    107   109     1996.0000  2601     1858.0000     2000.0000  1409141    7.64%
Elapsed time = 1752.76 sec. (701539.18 ticks, tree = 0.39 MB, solutions = 3)
    108   110     1996.0000  2501     1858.0000     2000.0000  1530295    7.64%
    109   111     1995.7826  2233     1858.0000     2000.0000  1535461    7.64%
    110   112     1996.0000  2642     1858.0000     2000.0000  1635285    7.64%
    111   113     1995.9312  2451     1858.0000     2000.0000  1665675    7.64%
    112   114     1995.9289  2481     1858.0000     2000.0000  1671430    7.64%
    113   115     1995.9095  2475     1858.0000     2000.0000  1675119    7.64%
    115   117     1995.8834  2513     1858.0000     2000.0000  1679895    7.64%
    118   120     1995.8556  2501     1858.0000     2000.0000  1685783    7.64%
    120   122     1995.8745  2518     1858.0000     2000.0000  1690626    7.64%
    122   124     1995.8710  2590     1858.0000     2000.0000  1694262    7.64%
Elapsed time = 2176.98 sec. (882139.40 ticks, tree = 0.45 MB, solutions = 3)
    125   127     1995.8710  2482     1858.0000     2000.0000  1697892    7.64%
    128   130     1995.8660  2489     1858.0000     2000.0000  1702214    7.64%
*   130+  130                         1898.0000     2000.0000             5.37%
    130   132     1995.8660  2450     1898.0000     2000.0000  1704643    5.37%
    133   135     1995.7589  2419     1898.0000     2000.0000  1709487    5.37%
    138   140     1995.8017  2396     1898.0000     2000.0000  1713084    5.37%
*   140+  140                         1908.0000     2000.0000             4.82%
    140   142     1995.8017  2385     1908.0000     2000.0000  1715656    4.82%
    143   145     1995.7040  2427     1908.0000     2000.0000  1721939    4.82%
    145   147     1995.5400  2444     1908.0000     2000.0000  1725948    4.82%
    150   152     1995.6224  2376     1908.0000     2000.0000  1729769    4.82%
    153   155     1995.7234  2386     1908.0000     2000.0000  1732917    4.82%
Elapsed time = 2236.61 sec. (908498.73 ticks, tree = 0.57 MB, solutions = 5)
    156   158     1995.7186  2433     1908.0000     2000.0000  1736533    4.82%
    158   160     1995.6954  2498     1908.0000     2000.0000  1740216    4.82%
    162   164     1995.6549  2435     1908.0000     2000.0000  1744549    4.82%
    164   166     1995.4373  2470     1908.0000     2000.0000  1749895    4.82%
    166   168     1995.2143  2392     1908.0000     2000.0000  1756540    4.82%
    170   172     1994.1192  2396     1908.0000     2000.0000  1760518    4.82%
    172   174     1993.9916  2357     1908.0000     2000.0000  1765696    4.82%
    177   179     1992.6425  2341     1908.0000     2000.0000  1769281    4.82%
    180   182     1991.8673  2374     1908.0000     2000.0000  1771232    4.82%
    183   185     1990.1737  2314     1908.0000     2000.0000  1775152    4.82%
Elapsed time = 2285.83 sec. (929559.04 ticks, tree = 0.68 MB, solutions = 5)
    187   189     1989.5492  2411     1908.0000     2000.0000  1779225    4.82%
    196   198     1986.4039  2341     1908.0000     2000.0000  1784471    4.82%
    200   202     1985.0356  2276     1908.0000     2000.0000  1786008    4.82%
    207   209     1981.2904  2249     1908.0000     2000.0000  1790762    4.82%
    218   220     1975.9892  2256     1908.0000     2000.0000  1796407    4.82%
    228   230     1969.4370  2065     1908.0000     2000.0000  1801134    4.82%
*   230+  230                         1914.0000     2000.0000             4.49%
    230   232     1968.6250  2079     1914.0000     2000.0000  1801509    4.49%
    243   245     1963.8405  2050     1914.0000     2000.0000  1806350    4.49%
    255   257     1955.1454  1975     1914.0000     2000.0000  1812157    4.49%
    269   271     1949.3571  1926     1914.0000     2000.0000  1817363    4.49%
Elapsed time = 2316.43 sec. (942148.74 ticks, tree = 1.06 MB, solutions = 6)
    272   274     1947.9426  1836     1914.0000     2000.0000  1818443    4.49%
    280   282     1940.5155  1786     1914.0000     2000.0000  1821590    4.49%
    300   302     1922.8155  1542     1914.0000     2000.0000  1825897    4.49%
    315   313     2000.0000  2656     1914.0000     2000.0000  1831109    4.49%
    316   314     2000.0000  2674     1914.0000     2000.0000  1835224    4.49%
    320   318     2000.0000  2656     1914.0000     2000.0000  1838291    4.49%
    323   321     2000.0000  2669     1914.0000     2000.0000  1841085    4.49%
    326   324     2000.0000  2813     1914.0000     2000.0000  1844179    4.49%
    329   327     2000.0000  2754     1914.0000     2000.0000  1849507    4.49%
*   330+  326                         1916.0000     2000.0000             4.38%
    330   328     2000.0000  2881     1916.0000     2000.0000  1850683    4.38%
Elapsed time = 2493.18 sec. (1009083.74 ticks, tree = 1.31 MB, solutions = 7)
    332   330     2000.0000  2672     1916.0000     2000.0000  1853711    4.38%
    334   332     2000.0000  2666     1916.0000     2000.0000  1856579    4.38%
    335   333     2000.0000  2623     1916.0000     2000.0000  1873148    4.38%
    340   338     2000.0000  2676     1916.0000     2000.0000  1876109    4.38%
    345   343     2000.0000  2549     1916.0000     2000.0000  1879563    4.38%
    349   347     2000.0000  2545     1916.0000     2000.0000  1885960    4.38%
    351   349     2000.0000  2590     1916.0000     2000.0000  1888170    4.38%
    352   350     2000.0000  2708     1916.0000     2000.0000  1891467    4.38%
    354   352     2000.0000  2565     1916.0000     2000.0000  1894573    4.38%
    361   359     2000.0000  2598     1916.0000     2000.0000  1907055    4.38%
Elapsed time = 2599.77 sec. (1058112.79 ticks, tree = 1.43 MB, solutions = 7)
    371   369     2000.0000  2581     1916.0000     2000.0000  1920174    4.38%
    382   380     2000.0000  2577     1916.0000     2000.0000  1932659    4.38%
    387   385     2000.0000  2442     1916.0000     2000.0000  1943121    4.38%
    388   386     2000.0000  2543     1916.0000     2000.0000  1959688    4.38%
    389   387     2000.0000  2581     1916.0000     2000.0000  1971350    4.38%
    396   394     1998.2500  2488     1916.0000     2000.0000  1985618    4.38%
    398   396     2000.0000  2425     1916.0000     2000.0000  2015481    4.38%
    401   399     2000.0000  2916     1916.0000     2000.0000  2052103    4.38%
    402   400     2000.0000  2513     1916.0000     2000.0000  2201084    4.38%
    403   401     2000.0000  2584     1916.0000     2000.0000  2221941    4.38%
Elapsed time = 2892.10 sec. (1171197.93 ticks, tree = 1.58 MB, solutions = 7)
    405   403     2000.0000  2421     1916.0000     2000.0000  2242542    4.38%
    410   408     2000.0000  2446     1916.0000     2000.0000  2361171    4.38%
    411   409     1999.8750  2530     1916.0000     2000.0000  2372823    4.38%
    412   410     1998.2500  2552     1916.0000     2000.0000  2388875    4.38%
    414   412     1998.0000  2276     1916.0000     2000.0000  2400258    4.38%
    416   414     1998.0000  2566     1916.0000     2000.0000  2411138    4.38%
    417   415     1998.0000  2832     1916.0000     2000.0000  2537631    4.38%
    418   416     1998.0000  2989     1916.0000     2000.0000  2637697    4.38%
    419   417     1998.0000  2776     1916.0000     2000.0000  2752795    4.38%
    420   418     1998.0000  2870     1916.0000     2000.0000  2823441    4.38%
Elapsed time = 3528.59 sec. (1441949.00 ticks, tree = 1.64 MB, solutions = 7)
    421   419     1998.0000  2851     1916.0000     2000.0000  2926860    4.38%
    422   420     1997.9270  2555     1916.0000     2000.0000  3028043    4.38%
    423   421     1998.0000  2759     1916.0000     2000.0000  3203299    4.38%
    424   422     1998.0000  2843     1916.0000     2000.0000  3272509    4.38%
    425   423     1998.0000  2932     1916.0000     2000.0000  3405738    4.38%
    426   424     1998.0000  2696     1916.0000     2000.0000  3555481    4.38%
    427   425     1998.0000  2830     1916.0000     2000.0000  3615000    4.38%
    428   426     1998.0000  2738     1916.0000     2000.0000  3846127    4.38%
    429   427     1998.0000  2614     1916.0000     2000.0000  4014520    4.38%
    430   428     1998.0000  2896     1916.0000     2000.0000  4103769    4.38%
Elapsed time = 4887.94 sec. (1910707.96 ticks, tree = 1.68 MB, solutions = 7)
    431   429     1998.0000  2800     1916.0000     2000.0000  4201161    4.38%
    432   430     1998.0000  2680     1916.0000     2000.0000  4327578    4.38%
    433   431     1998.0000  2704     1916.0000     2000.0000  4398173    4.38%
    434   432     1997.6751  2373     1916.0000     2000.0000  4426356    4.38%
    435   433     1998.0000  2861     1916.0000     2000.0000  4504021    4.38%
    436   434     1998.0000  2638     1916.0000     2000.0000  4588974    4.38%
    437   435     1996.0000  2745     1916.0000     2000.0000  4720821    4.38%
    438   436     1996.0000  2531     1916.0000     2000.0000  4870125    4.38%
    439   437     1996.0000  2494     1916.0000     2000.0000  5008493    4.38%
    440   438     1996.0000  2558     1916.0000     2000.0000  5127489    4.38%
Elapsed time = 5749.05 sec. (2275809.78 ticks, tree = 1.71 MB, solutions = 7)
    441   439     1995.5000  2965     1916.0000     2000.0000  5235462    4.38%
    442   440     1995.5000  2603     1916.0000     2000.0000  5311530    4.38%
    443   441     1995.5000  2920     1916.0000     2000.0000  5452657    4.38%
    444   442     1995.5000  2339     1916.0000     2000.0000  5580014    4.38%
    445   443     1995.5000  2675     1916.0000     2000.0000  5635365    4.38%
    446   444     1995.1667  2750     1916.0000     2000.0000  5738639    4.38%
    447   445     1994.7500  2642     1916.0000     2000.0000  5871900    4.38%
    448   446     1994.3529  2753     1916.0000     2000.0000  5989119    4.38%
    449   447     1994.0000  2562     1916.0000     2000.0000  6132397    4.38%
    450   448     1992.3077  2796     1916.0000     2000.0000  6197686    4.38%
Elapsed time = 6561.88 sec. (2627429.59 ticks, tree = 1.75 MB, solutions = 7)
    451   449     1994.0000  2567     1916.0000     2000.0000  6310595    4.38%
    452   450     1994.0000  2562     1916.0000     2000.0000  6388065    4.38%
    453   451     1994.0000  2582     1916.0000     2000.0000  6497962    4.38%
    454   452     1994.0000  2566     1916.0000     2000.0000  6553856    4.38%
    455   453     1994.0000  2684     1916.0000     2000.0000  6645912    4.38%
    456   454     1994.0000  2710     1916.0000     2000.0000  6822045    4.38%
    457   455     1992.6842  2467     1916.0000     2000.0000  6945663    4.38%
    458   456     1992.4704  2220     1916.0000     2000.0000  7069655    4.38%
    459   457     1991.6618  2435     1916.0000     2000.0000  7142052    4.38%

Clique cuts applied:  12
Implied bound cuts applied:  6
Zero-half cuts applied:  263
Gomory fractional cuts applied:  1

Root node processing (before b&c):
  Real time             =  769.39 sec. (317143.46 ticks)
Sequential b&c:
  Real time             = 6430.62 sec. (2594315.58 ticks)
                          ------------
Total (root+branch&cut) = 7200.01 sec. (2911459.04 ticks)
Solution is feasible.

---------------------
@@@ MIP_time_limit_feasible
>>> Benchmark sw100-15.cnf k 5 OPT 1916 TimeCost 7230.68128824234 TimeSolve 7228.815793275833 TimeRead 0.0073549747467041016 TimeTrans 1.858139991760254
